c 3 __LINUXTHREADS_OLD__
c 4 __UCLIBC_HAS_GNU_GLOB__
c 1 __UCLIBC_HAS_THREADS_NATIVE__
c 2 __UCLIBC_HAS_XLOCALE__
c 8 __UCLIBC_HAS_LOCALE__
c 5 __UCLIBC_HAS_GLOB__
c 7 __MALLOC_STANDARD__
c 9 __LINUXTHREADS_NEW__
c 6 __UCLIBC_HAS_THREADS__
p cnf 9 1
1 -4 -5 -3 -2 -6 -7 8 9 1
